RT is False
Default write of storage_offers_DA.csv just to have a file (but constraint should be inactive)
Reading model...
...model read.
creating competitive generators file...
...competitive generators recorded.
Loading data...
.. day-ahead data read.
Compiling instance...
...instance created.
Creating Offer Mitigation (model will solve as dispatch if TRUE)...
...storage offer mitigation file created
Converting model to MPEC...
...converted
MIP
NOTE: initial MIP solve with only storage competitive to get feasible solution
Solving...

Welcome to IBM(R) ILOG(R) CPLEX(R) Interactive Optimizer 12.9.0.0
  with Simplex, Mixed Integer & Barrier Optimizers
5725-A06 5725-A29 5724-Y48 5724-Y49 5724-Y54 5724-Y55 5655-Y21
Copyright IBM Corp. 1988, 2019.  All Rights Reserved.

Type 'help' for a list of available commands.
Type 'help' followed by a command name for more
information on commands.

CPLEX> Logfile 'cplex.log' closed.
Logfile 'C:\Users\Luke\Desktop\competitiveMPEC_1.16\logs\tmpbez45xzg.cplex.log' open.
CPLEX> New value for parallel optimization mode: -1
CPLEX> New value for mixed integer optimality gap tolerance: 0.01
CPLEX> New value for feasibility tolerance: 1e-05
CPLEX> New value for deterministic time limit in ticks: 150000
CPLEX> Problem 'C:\Users\Luke\Desktop\competitiveMPEC_1.16\logs\tmph6gd0c2x.pyomo.lp' read.
Read time = 0.19 sec. (13.86 ticks)
CPLEX> Problem name         : C:\Users\Luke\Desktop\competitiveMPEC_1.16\logs\tmph6gd0c2x.pyomo.lp
Objective sense      : Maximize
Variables            :   53321  [Nneg: 49,  Box: 21806,  Free: 4368,
                                 Binary: 27098]
Objective nonzeros   :    8945
Linear constraints   :  122164  [Less: 40983,  Greater: 58612,  Equal: 22569]
  Nonzeros           :  288470
  RHS nonzeros       :   66947

Variables            : Min LB: -5000.000        Max UB: 5000.000       
Objective nonzeros   : Min   : 0.1000000        Max   : 795.1000       
Linear constraints   :
  Nonzeros           : Min   : 0.1000000        Max   : 2910000.       
  RHS nonzeros       : Min   : 0.1000000        Max   : 3000000.       
CPLEX> CPXPARAM_Parallel                                -1
CPXPARAM_Simplex_Tolerances_Feasibility          1.0000000000000001e-05
CPXPARAM_DetTimeLimit                            150000
CPXPARAM_MIP_Tolerances_MIPGap                   0.01
Tried aggregator 3 times.
MIP Presolve eliminated 88265 rows and 19095 columns.
MIP Presolve added 3313 rows and 0 columns.
MIP Presolve modified 24454 coefficients.
Aggregator did 12833 substitutions.
Reduced MIP has 24379 rows, 20811 columns, and 68353 nonzeros.
Reduced MIP has 8218 binaries, 0 generals, 0 SOSs, and 0 indicators.
Presolve time = 0.23 sec. (165.97 ticks)
Probing fixed 412 vars, tightened 5942 bounds.
Probing time = 0.06 sec. (20.90 ticks)
Tried aggregator 2 times.
MIP Presolve eliminated 920 rows and 826 columns.
MIP Presolve modified 2976 coefficients.
Aggregator did 46 substitutions.
Reduced MIP has 23413 rows, 19939 columns, and 65549 nonzeros.
Reduced MIP has 7805 binaries, 0 generals, 0 SOSs, and 0 indicators.
Presolve time = 0.11 sec. (88.57 ticks)
Probing fixed 0 vars, tightened 224 bounds.
Probing time = 0.08 sec. (20.81 ticks)
Clique table members: 38121.
MIP emphasis: balance optimality and feasibility.
MIP search method: dynamic search.
Parallel mode: opportunistic, using up to 24 threads.
Root relaxation solution time = 0.36 sec. (549.25 ticks)

        Nodes                                         Cuts/
   Node  Left     Objective  IInf  Best Integer    Best Bound    ItCnt     Gap

      0     0    23906.5043    84                  23906.5043     4550         
      0     0    23905.2289    16                    Cuts: 61     4578         
*     0+    0                        23786.2879    23905.2289             0.50%

Flow cuts applied:  39
Mixed integer rounding cuts applied:  4
Gomory fractional cuts applied:  16

Root node processing (before b&c):
  Real time             =    1.75 sec. (1416.31 ticks)
Parallel b&c, 24 threads:
  Real time             =    0.00 sec. (0.00 ticks)
  Sync time (average)   =    0.00 sec.
  Wait time (average)   =    0.00 sec.
                          ------------
Total (root+branch&cut) =    1.75 sec. (1416.31 ticks)

Solution pool: 1 solution saved.

MIP - Integer optimal, tolerance (0.01/1e-06):  Objective =  2.3786287902e+04
Current MIP best bound =  2.3894808334e+04 (gap = 108.52, 0.46%)
Solution time =    1.77 sec.  Iterations = 4582  Nodes = 0 (1)
Deterministic time = 1416.47 ticks  (802.53 ticks/sec)

CPLEX> Incumbent solution written to file 'C:\Users\Luke\Desktop\competitiveMPEC_1.16\logs\tmpj1xkj5xq.cplex.sol'.
CPLEX> NOTE: no warmstart specified for MIP iteration, default behavior is true
MIP
NOTE: resolving with all competitive generators using storage-only solution to warmstart
Solving...

Welcome to IBM(R) ILOG(R) CPLEX(R) Interactive Optimizer 12.9.0.0
  with Simplex, Mixed Integer & Barrier Optimizers
5725-A06 5725-A29 5724-Y48 5724-Y49 5724-Y54 5724-Y55 5655-Y21
Copyright IBM Corp. 1988, 2019.  All Rights Reserved.

Type 'help' for a list of available commands.
Type 'help' followed by a command name for more
information on commands.

CPLEX> Logfile 'cplex.log' closed.
Logfile 'C:\Users\Luke\Desktop\competitiveMPEC_1.16\logs\tmphss0xrf3.cplex.log' open.
CPLEX> New value for parallel optimization mode: -1
CPLEX> New value for mixed integer optimality gap tolerance: 0.01
CPLEX> New value for feasibility tolerance: 1e-05
CPLEX> New value for deterministic time limit in ticks: 150000
CPLEX> Problem 'C:\Users\Luke\Desktop\competitiveMPEC_1.16\logs\tmp8v7x_3rb.pyomo.lp' read.
Read time = 0.19 sec. (13.86 ticks)
CPLEX> MIP start file 'C:\Users\Luke\Desktop\competitiveMPEC_1.16\logs\tmpswbcz04i.cplex.mst' read.
CPLEX> Problem name         : C:\Users\Luke\Desktop\competitiveMPEC_1.16\logs\tmp8v7x_3rb.pyomo.lp
Objective sense      : Maximize
Variables            :   53321  [Nneg: 49,  Box: 21806,  Free: 4368,
                                 Binary: 27098]
Objective nonzeros   :    8921
Linear constraints   :  122164  [Less: 40983,  Greater: 58612,  Equal: 22569]
  Nonzeros           :  288470
  RHS nonzeros       :   66947

Variables            : Min LB: -5000.000        Max UB: 5000.000       
Objective nonzeros   : Min   : 0.1000000        Max   : 795.1000       
Linear constraints   :
  Nonzeros           : Min   : 0.1000000        Max   : 2910000.       
  RHS nonzeros       : Min   : 0.1000000        Max   : 3000000.       
CPLEX> CPXPARAM_Parallel                                -1
CPXPARAM_Simplex_Tolerances_Feasibility          1.0000000000000001e-05
CPXPARAM_DetTimeLimit                            150000
CPXPARAM_MIP_Tolerances_MIPGap                   0.01
Warning:  No solution found from 1 MIP starts.
Retaining values of one MIP start for possible repair.
Tried aggregator 3 times.
MIP Presolve eliminated 88265 rows and 19095 columns.
MIP Presolve added 3313 rows and 0 columns.
MIP Presolve modified 24454 coefficients.
Aggregator did 12833 substitutions.
Reduced MIP has 24379 rows, 20811 columns, and 68353 nonzeros.
Reduced MIP has 8218 binaries, 0 generals, 0 SOSs, and 0 indicators.
Presolve time = 0.22 sec. (165.97 ticks)
Probing fixed 412 vars, tightened 5942 bounds.
Probing time = 0.06 sec. (20.90 ticks)
Tried aggregator 2 times.
MIP Presolve eliminated 920 rows and 826 columns.
MIP Presolve modified 2976 coefficients.
Aggregator did 46 substitutions.
Reduced MIP has 23413 rows, 19939 columns, and 65549 nonzeros.
Reduced MIP has 7805 binaries, 0 generals, 0 SOSs, and 0 indicators.
Presolve time = 0.11 sec. (88.58 ticks)
Probing fixed 0 vars, tightened 224 bounds.
Probing time = 0.08 sec. (20.81 ticks)
Clique table members: 38121.
MIP emphasis: balance optimality and feasibility.
MIP search method: dynamic search.
Parallel mode: opportunistic, using up to 24 threads.
Root relaxation solution time = 0.38 sec. (570.32 ticks)

        Nodes                                         Cuts/
   Node  Left     Objective  IInf  Best Integer    Best Bound    ItCnt     Gap

      0     0    95952.1260   230                  95952.1260     4787         
      0     0    95133.4703    97                   Cuts: 234     4923         
      0     0    95095.6755    98                    Cuts: 35     4962         
      0     0    95055.9950    87                    Cuts: 23     4979         
      0     0    95055.9950    84                    Cuts: 14     4985         
      0     0    95055.9950    70                 Flowcuts: 2     4988         
      0     0    95055.9950    69                     Cuts: 6     4989         
Repair heuristic found nothing.
      0    13    92095.4776    69                     Cuts: 6     5055         
Elapsed time = 4.84 sec. (3171.76 ticks, tree = 0.02 MB, solutions = 0)
    508   267    83123.3954    35                  93992.5048     6841         
    873   611    87389.5415    41                  93992.5048    10559         
   1184  1060    86989.2138    27                  93992.5048    15372         
   1699  1210    77481.3037    31                  93992.5048    16948         
   2214  1734    93803.3133    54                  93992.5048    24371         
   2700  1950    64781.1472    38                  93992.5048    30353         
   3199  2248    93885.1000    55                  93992.5048    40418         
   3734  2410    90325.8475    34                  93992.5048    44424         
   4190  3296    80561.4151    57                  93884.9387    55749         
   5226  4193    88517.1042    43                  93884.9387    79406         
Elapsed time = 18.25 sec. (10238.82 ticks, tree = 34.19 MB, solutions = 0)
   5775   268    infeasible                        93884.9387    83585         
   6924  1174    84573.5290    24                  93884.9387    94397         
   9079  2199    87201.7527    30                  93884.9387   100582         
  10912  4597    86864.2436    40                  93884.9387   120763         
  13262  6512    89684.9457    10                  93884.9387   140608         
* 14835  7356      integral     0    89515.8033    93884.9387   146070    4.88%
  15963  1097    90310.0586    19    90201.1904    93395.7286   159364    3.54%

Cover cuts applied:  38
Flow cuts applied:  45
Mixed integer rounding cuts applied:  12
Zero-half cuts applied:  1
Lift and project cuts applied:  1
Gomory fractional cuts applied:  4

Root node processing (before b&c):
  Real time             =    4.28 sec. (3130.85 ticks)
Parallel b&c, 24 threads:
  Real time             =   39.59 sec. (21764.49 ticks)
  Sync time (average)   =    9.68 sec.
  Wait time (average)   =    0.06 sec.
                          ------------
Total (root+branch&cut) =   43.88 sec. (24895.35 ticks)

Solution pool: 6 solutions saved.

MIP - Integer optimal, tolerance (0.01/1e-06):  Objective =  9.0255967711e+04
Current MIP best bound =  9.1137764692e+04 (gap = 881.797, 0.98%)
Solution time =   43.89 sec.  Iterations = 170636  Nodes = 16479 (894)
Deterministic time = 24895.50 ticks  (567.21 ticks/sec)

CPLEX> Incumbent solution written to file 'C:\Users\Luke\Desktop\competitiveMPEC_1.16\logs\tmph7dvssdf.cplex.sol'.
CPLEX> Exporting results... 
